language ESSENCE' 1.0

letting jobs = 102
letting horizon = 825
letting resourcesRenew = 2
letting resourcesNonrenew = 2
letting resourceLimits = [32, 35, 263, 265]
letting successors = [[2, 4, 5, 6, 8, 9, 10, 11, 12, 13, 15, 16, 17, 18, 19, 34], [41, 38, 29, 27, 26, 25, 24, 23, 20, 14, 7, 3], [58, 57, 55, 54, 47, 46, 45, 42, 40, 37, 32, 30, 28, 21], [58, 57, 48, 46, 43, 41, 39, 38, 36, 35, 33, 27, 26], [54, 50, 49, 48, 47, 46, 43, 41, 37, 32, 31, 23], [54, 53, 46, 45, 44, 43, 36, 35, 32, 30, 26], [58, 57, 55, 54, 52, 47, 45, 44, 43, 39, 37, 36, 32, 28], [58, 57, 54, 50, 46, 40, 39, 37, 33, 32, 26], [58, 57, 53, 47, 46, 44, 42, 40, 39, 35, 33, 32, 31], [58, 57, 54, 52, 47, 44, 43, 42, 39, 37, 36, 35, 27], [58, 55, 47, 46, 43, 42, 37, 35, 32, 31, 30], [54, 53, 50, 47, 46, 45, 44, 40, 39, 38, 33, 32, 31], [58, 55, 54, 48, 45, 44, 42, 40, 39, 35, 32, 31], [58, 47, 37, 35, 32, 22], [54, 50, 48, 46, 44, 43, 42, 39, 33, 32, 31], [67, 58, 57, 55, 52, 43, 41, 37, 35, 30], [57, 55, 54, 44, 40, 37, 36, 28], [75, 67, 66, 65, 64, 55, 52, 51, 48, 44, 40, 39, 35], [66, 64, 58, 56, 55, 52, 51, 50, 49, 48, 46, 37], [81, 70, 68, 56, 55, 54, 53, 50, 48, 46, 44, 31], [68, 53, 43, 39, 35, 31], [80, 75, 71, 68, 66, 65, 64, 59, 57, 55, 52, 50, 46, 44, 39], [85, 81, 72, 70, 68, 66, 65, 64, 60, 59, 58, 57, 55, 53, 51, 44, 42], [66, 60, 55, 49, 42, 37, 32], [60, 59, 58, 53, 44, 39, 32], [85, 75, 70, 63, 51, 49, 47, 42, 31], [72, 70, 66, 65, 60, 59, 53, 49, 32], [75, 70, 68, 67, 65, 64, 62, 61, 51, 35], [85, 80, 77, 75, 72, 71, 70, 68, 65, 64, 61, 60, 59, 56, 55, 44], [80, 77, 65, 64, 60, 48, 39], [80, 77, 72, 71, 69, 67, 66, 65, 64, 62, 61, 59, 52], [85, 80, 75, 71, 68, 67, 64, 63, 62, 61, 56, 51], [81, 79, 78, 75, 72, 70, 68, 66, 64, 63, 62, 61, 56, 55], [85, 84, 80, 74, 73, 72, 68, 63, 60, 55, 53], [100, 84, 81, 80, 77, 71, 63, 60, 59, 56, 50], [101, 85, 80, 79, 78, 77, 75, 73, 72, 69, 66, 64, 62, 49], [99, 84, 80, 78, 73, 70, 68, 65, 63, 59, 53], [100, 84, 77, 75, 72, 71, 65, 61, 60, 56, 51], [101, 100, 85, 73, 72, 70, 69, 62, 61, 49], [98, 81, 80, 79, 78, 77, 76, 74, 73, 71, 69, 68, 63], [74, 73, 69, 68, 63, 62, 61, 59], [96, 94, 84, 80, 79, 78, 73, 71, 69, 67, 61], [100, 98, 96, 81, 79, 77, 76, 71, 62, 61], [101, 100, 98, 97, 93, 82, 79, 78, 76, 63, 62], [99, 98, 97, 96, 84, 80, 76, 69, 60], [96, 95, 92, 88, 85, 84, 79, 77, 74, 67], [100, 89, 78, 76, 73, 72, 71, 64], [100, 98, 97, 94, 78, 76, 62, 61], [98, 97, 96, 95, 93, 92, 91, 88, 84, 82, 81, 76, 74], [101, 99, 98, 94, 93, 89, 85, 78, 76, 73, 72], [101, 97, 96, 94, 93, 90, 79, 78, 76, 69], [101, 100, 96, 94, 73, 60], [101, 98, 94, 92, 90, 87, 82, 77, 75, 71], [101, 99, 98, 97, 95, 94, 93, 92, 91, 90, 88, 87, 84, 83], [99, 97, 96, 94, 93, 91, 89, 82, 76, 69], [97, 96, 95, 91, 89, 88, 74, 73], [98, 96, 93, 92, 83, 78, 62], [95, 87, 82, 79, 78, 74], [98, 97, 93, 92, 90, 88, 79, 76], [93, 92, 90, 87, 82, 79, 78], [93, 92, 91, 90, 89, 87, 82], [99, 95, 91, 90, 88, 86, 84], [96, 94, 92, 90, 89, 88, 83], [98, 96, 94, 92, 91, 88, 87], [96, 95, 94, 92, 87, 83], [97, 95, 93, 90, 88, 83], [98, 91, 89, 76], [100, 96, 94, 93, 90, 87], [95, 92, 88, 87, 83], [93, 92, 89, 87, 86], [97, 93, 88, 86], [95, 91, 90, 88], [92, 87, 83], [99, 94, 90], [97, 91, 89], [87, 83], [93, 83], [88, 86], [91, 89], [93, 90], [94, 87], [83], [86], [89], [87], [102], [102], [102], [102], [102], [102], [102], [102], [102], [102], [102], [102], [102], [102], [102], [102], []]
letting durations = [[0], [1, 2, 3], [4, 5, 7], [3, 4, 10], [5, 9, 10], [6, 9, 10], [2, 7, 10], [1, 6, 9], [2, 3, 5], [1, 7, 9], [2, 8, 9], [6, 8, 9], [1, 4, 7], [3, 4, 10], [6, 9, 10], [2, 6, 9], [2, 5, 10], [1, 6, 7], [1, 7, 8], [2, 4, 8], [9, 9, 10], [1, 4, 4], [1, 7, 9], [2, 4, 5], [2, 3, 4], [3, 4, 10], [3, 3, 6], [1, 3, 9], [2, 3, 7], [4, 6, 8], [1, 4, 6], [5, 7, 10], [4, 5, 10], [4, 9, 10], [1, 4, 10], [4, 5, 6], [4, 6, 8], [1, 3, 9], [1, 2, 3], [4, 7, 8], [2, 3, 8], [7, 9, 10], [4, 7, 10], [3, 5, 8], [8, 9, 10], [4, 5, 8], [3, 5, 9], [1, 2, 10], [3, 4, 5], [3, 4, 6], [1, 6, 9], [2, 8, 8], [1, 6, 8], [4, 5, 10], [6, 7, 8], [2, 7, 9], [4, 6, 10], [1, 9, 10], [2, 6, 9], [3, 6, 7], [3, 5, 8], [1, 3, 4], [1, 3, 7], [3, 6, 9], [6, 6, 10], [3, 4, 8], [2, 3, 5], [1, 6, 7], [2, 6, 10], [2, 5, 10], [2, 4, 6], [4, 8, 9], [5, 9, 9], [2, 3, 6], [1, 2, 2], [2, 4, 10], [1, 9, 10], [1, 3, 8], [4, 4, 10], [2, 2, 7], [2, 4, 7], [6, 8, 10], [3, 4, 6], [3, 8, 10], [2, 3, 10], [4, 9, 10], [1, 5, 7], [3, 3, 10], [5, 8, 10], [3, 5, 8], [1, 5, 8], [9, 9, 10], [1, 6, 8], [3, 4, 6], [3, 7, 10], [3, 6, 10], [1, 4, 9], [5, 10, 10], [1, 8, 10], [2, 8, 9], [1, 3, 8], [0]]
letting resourceUsage = [[[0, 0, 0, 0]], [[5, 2, 0, 7], [5, 2, 3, 0], [5, 2, 0, 5]], [[1, 4, 0, 6], [1, 4, 0, 4], [1, 4, 2, 0]], [[3, 4, 0, 4], [3, 2, 2, 0], [3, 2, 1, 0]], [[2, 4, 0, 5], [2, 3, 0, 3], [2, 3, 0, 2]], [[4, 5, 4, 0], [4, 5, 3, 0], [4, 5, 1, 0]], [[2, 4, 0, 1], [1, 2, 0, 1], [1, 2, 4, 0]], [[3, 4, 4, 0], [3, 3, 4, 0], [3, 3, 0, 1]], [[5, 4, 0, 3], [3, 2, 6, 0], [3, 1, 5, 0]], [[5, 3, 0, 10], [4, 3, 8, 0], [3, 3, 6, 0]], [[3, 3, 5, 0], [2, 3, 4, 0], [1, 2, 0, 9]], [[2, 5, 10, 0], [1, 2, 0, 8], [1, 1, 0, 8]], [[3, 2, 0, 6], [2, 2, 0, 5], [1, 2, 0, 5]], [[5, 3, 0, 3], [3, 3, 2, 0], [2, 2, 2, 0]], [[4, 2, 4, 0], [4, 2, 0, 7], [4, 1, 0, 4]], [[4, 5, 0, 2], [4, 4, 9, 0], [4, 4, 8, 0]], [[2, 4, 0, 7], [2, 3, 0, 5], [2, 3, 0, 4]], [[5, 4, 7, 0], [3, 3, 4, 0], [2, 3, 4, 0]], [[4, 2, 0, 5], [2, 1, 0, 5], [2, 1, 0, 4]], [[4, 3, 0, 8], [4, 2, 0, 6], [4, 2, 4, 0]], [[4, 4, 0, 5], [3, 3, 9, 0], [2, 3, 0, 4]], [[4, 4, 9, 0], [3, 3, 0, 2], [3, 2, 2, 0]], [[1, 5, 10, 0], [1, 3, 9, 0], [1, 3, 8, 0]], [[4, 3, 6, 0], [4, 3, 0, 2], [4, 3, 0, 1]], [[3, 4, 0, 2], [3, 3, 0, 2], [3, 2, 0, 1]], [[3, 5, 6, 0], [3, 3, 4, 0], [1, 3, 4, 0]], [[4, 3, 6, 0], [2, 2, 0, 5], [1, 2, 5, 0]], [[5, 4, 0, 2], [2, 4, 4, 0], [2, 4, 3, 0]], [[2, 4, 6, 0], [1, 3, 6, 0], [1, 3, 0, 4]], [[5, 5, 7, 0], [4, 4, 0, 4], [2, 4, 0, 4]], [[3, 3, 4, 0], [2, 3, 0, 6], [2, 1, 1, 0]], [[3, 3, 0, 3], [3, 2, 3, 0], [3, 2, 2, 0]], [[4, 5, 4, 0], [3, 4, 2, 0], [3, 4, 1, 0]], [[5, 5, 0, 7], [3, 3, 2, 0], [3, 2, 1, 0]], [[3, 4, 0, 6], [3, 2, 0, 5], [1, 1, 3, 0]], [[3, 2, 4, 0], [2, 2, 3, 0], [1, 2, 0, 3]], [[3, 2, 10, 0], [3, 2, 0, 4], [2, 2, 0, 4]], [[5, 3, 0, 8], [3, 2, 0, 7], [2, 2, 0, 7]], [[3, 2, 6, 0], [3, 2, 5, 0], [2, 2, 2, 0]], [[1, 5, 0, 4], [1, 4, 0, 2], [1, 2, 0, 2]], [[4, 4, 0, 6], [4, 3, 6, 0], [2, 3, 0, 3]], [[2, 5, 6, 0], [1, 4, 0, 8], [1, 4, 5, 0]], [[2, 5, 9, 0], [1, 5, 9, 0], [1, 5, 8, 0]], [[1, 1, 0, 5], [1, 1, 6, 0], [1, 1, 0, 4]], [[3, 3, 9, 0], [3, 3, 8, 0], [3, 3, 7, 0]], [[4, 4, 6, 0], [3, 4, 6, 0], [3, 4, 4, 0]], [[4, 4, 0, 6], [4, 4, 0, 3], [3, 2, 6, 0]], [[5, 3, 5, 0], [3, 2, 5, 0], [3, 2, 4, 0]], [[5, 2, 7, 0], [3, 1, 0, 2], [1, 1, 0, 2]], [[2, 5, 0, 3], [2, 3, 0, 2], [2, 2, 8, 0]], [[5, 3, 0, 8], [5, 2, 3, 0], [5, 2, 2, 0]], [[4, 3, 3, 0], [2, 3, 2, 0], [2, 3, 0, 7]], [[5, 4, 0, 8], [5, 4, 0, 7], [5, 2, 0, 8]], [[5, 4, 0, 6], [4, 3, 0, 4], [4, 2, 3, 0]], [[4, 4, 6, 0], [4, 3, 5, 0], [4, 3, 0, 4]], [[3, 4, 6, 0], [2, 3, 6, 0], [1, 3, 6, 0]], [[2, 1, 9, 0], [2, 1, 0, 2], [2, 1, 7, 0]], [[4, 3, 9, 0], [3, 3, 0, 7], [2, 2, 7, 0]], [[4, 3, 0, 7], [3, 3, 0, 7], [3, 3, 3, 0]], [[2, 4, 7, 0], [2, 4, 6, 0], [2, 4, 0, 1]], [[1, 4, 0, 9], [1, 3, 9, 0], [1, 2, 0, 8]], [[3, 4, 9, 0], [3, 4, 0, 5], [2, 4, 9, 0]], [[4, 3, 0, 8], [4, 1, 4, 0], [4, 1, 0, 8]], [[1, 5, 0, 8], [1, 3, 0, 6], [1, 3, 0, 4]], [[3, 3, 0, 7], [2, 2, 2, 0], [1, 2, 2, 0]], [[2, 5, 0, 5], [1, 4, 0, 3], [1, 4, 0, 2]], [[5, 3, 0, 6], [3, 2, 0, 4], [2, 2, 2, 0]], [[4, 3, 0, 10], [3, 3, 2, 0], [2, 2, 0, 8]], [[4, 4, 0, 10], [4, 4, 7, 0], [3, 4, 7, 0]], [[1, 5, 9, 0], [1, 4, 9, 0], [1, 3, 0, 6]], [[5, 2, 0, 3], [4, 2, 0, 3], [4, 2, 0, 2]], [[5, 3, 6, 0], [4, 3, 0, 3], [3, 2, 3, 0]], [[2, 3, 6, 0], [2, 3, 5, 0], [2, 2, 0, 7]], [[5, 4, 0, 3], [5, 3, 1, 0], [5, 2, 1, 0]], [[4, 4, 10, 0], [3, 4, 6, 0], [1, 4, 0, 2]], [[3, 1, 2, 0], [2, 1, 2, 0], [2, 1, 1, 0]], [[5, 4, 8, 0], [5, 4, 0, 2], [5, 4, 0, 1]], [[5, 3, 0, 3], [3, 2, 0, 2], [3, 1, 0, 2]], [[5, 3, 0, 3], [4, 3, 2, 0], [3, 3, 1, 0]], [[3, 5, 0, 4], [3, 4, 4, 0], [1, 3, 0, 3]], [[3, 4, 6, 0], [2, 3, 5, 0], [2, 2, 0, 5]], [[1, 4, 0, 8], [1, 4, 8, 0], [1, 3, 8, 0]], [[3, 4, 0, 1], [3, 4, 6, 0], [3, 2, 5, 0]], [[4, 3, 0, 8], [3, 3, 9, 0], [3, 2, 9, 0]], [[1, 4, 5, 0], [1, 4, 0, 5], [1, 4, 0, 4]], [[5, 2, 7, 0], [4, 1, 6, 0], [4, 1, 0, 2]], [[4, 5, 0, 6], [4, 4, 0, 4], [4, 4, 0, 3]], [[4, 4, 6, 0], [3, 3, 0, 7], [2, 2, 2, 0]], [[5, 5, 0, 8], [3, 4, 5, 0], [3, 4, 0, 8]], [[5, 4, 0, 9], [5, 4, 0, 4], [5, 4, 2, 0]], [[4, 3, 0, 9], [4, 3, 4, 0], [4, 3, 0, 8]], [[4, 5, 0, 6], [3, 5, 7, 0], [3, 5, 6, 0]], [[4, 2, 0, 9], [3, 2, 0, 7], [3, 2, 0, 6]], [[2, 4, 5, 0], [2, 4, 4, 0], [2, 2, 2, 0]], [[3, 3, 8, 0], [1, 1, 0, 8], [1, 1, 0, 7]], [[5, 5, 2, 0], [4, 4, 1, 0], [3, 3, 0, 2]], [[2, 3, 0, 9], [2, 2, 0, 9], [2, 1, 0, 9]], [[2, 4, 0, 4], [2, 4, 0, 3], [2, 4, 7, 0]], [[3, 5, 3, 0], [3, 3, 2, 0], [1, 3, 0, 3]], [[1, 2, 7, 0], [1, 2, 0, 3], [1, 1, 0, 2]], [[3, 4, 0, 9], [2, 3, 0, 6], [2, 3, 0, 3]], [[0, 0, 0, 0]]]
